c --- [ banner ] -------------------------------------------------------------
c 
c CaDiCaL Radically Simplified CDCL SAT Solver
c Copyright (c) 2016-2021 A. Biere, M. Fleury, N. Froleyks
c 
c Version 1.5.2 a5f15211db36c3956764e18194dd5bd63bf3b5e6
c g++ (GCC) 9.3.0 -Wall -Wextra -O3 -DNDEBUG
c Fri Oct 21 01:27:37 EDT 2022 Linux gra-login3 3.10.0-1160.66.1.el7.x86_64 x86_64
c 
c --- [ limit ] --------------------------------------------------------------
c 
c setting conflict limit to 200000 conflicts (due to '200000')
c 
c --- [ parsing input ] ------------------------------------------------------
c 
c reading DIMACS file from '33.cubes5017.adj'
c opening file to read '33.cubes5017.adj'
c found 'p cnf 6160 1595471' header
c parsed 1595471 clauses in 19.25 seconds process time
c closing file '33.cubes5017.adj'
c after reading 1457566748 bytes 1390.0 MB
c 
c --- [ options ] ------------------------------------------------------------
c 
c all options are set to their default value
c 
c --- [ solving ] ------------------------------------------------------------
c 
c time measured in process time since initialization
c 
c  seconds    reductions  redundant   irredundant
c          MB     restarts       trail       variables
c            level   conflicts       glue         remaining
c 
c * 19.25 1374  0 0   0    0    0  0% 0 1595422 2473 40%
c { 20.49 1425  0 0   0    0    0  0% 0 1595422 2473 40%
c i 23.98 1493 437 0   7   58   50 30% 9 1595422 2472 40%
c i 24.05 1493 415 0   8   61   52 30% 10 1595422 2471 40%
c i 24.14 1497 407 0   9   62   52 30% 9 1595422 2459 40%
c i 24.26 1498 380 0  10   69   57 30% 10 1595422 2458 40%
c i 24.39 1499 357 0  12   74   61 30% 13 1595422 2457 40%
c i 25.21 1507 294 0  18   95   79 30% 17 1595422 2422 39%
c i 25.25 1507 279 0  20  100   78 29% 16 1595422 2421 39%
c i 26.19 1509 209 0  30  149  121 29% 23 1595422 2420 39%
c i 26.46 1510 192 0  36  177  144 29% 28 1595422 2419 39%
c i 26.71 1512 181 0  40  193  158 29% 30 1595422 2418 39%
c i 27.42 1513 164 0  49  229  186 29% 32 1595422 2417 39%
c i 27.59 1515 156 0  53  243  196 29% 30 1595422 2416 39%
c i 27.63 1515 153 0  53  250  202 29% 30 1595422 2415 39%
c i 28.25 1517 141 0  62  300  246 29% 32 1595422 2413 39%
c - 32.02 1473 141 1  63  300  243 29% 32 467679 2413 39%
c i 33.18 1475 127 1  69  369  285 29% 31 467679 2412 39%
c i 33.39 1475 123 1  69  389  301 29% 31 467679 2411 39%
c i 33.43 1475 123 1  69  391  302 29% 31 467679 2410 39%
c 
c  seconds     reductions  redundant   irredundant
c          MB      restarts       trail       variables
c             level   conflicts       glue         remaining
c 
c i 33.62 1475 120 1  72  407  314 29% 31 467679 2409 39%
c i 33.79 1475 117 1  74  421  326 29% 31 467679 2408 39%
c i 33.82 1475 116 1  74  428  332 29% 31 467679 2407 39%
c i 34.11 1475 106 1  74  476  363 29% 30 467679 2406 39%
c i 34.28 1476 103 1  74  494  375 29% 30 467679 2405 39%
c i 34.32 1476 100 1  74  517  389 29% 30 467679 2404 39%
c i 34.36 1476 99 1  74  521  392 29% 29 467679 2403 39%
c i 34.38 1476 99 1  74  522  392 29% 29 467679 2402 39%
c i 34.49 1476 100 1  77  540  409 29% 30 467679 2401 39%
c i 34.90 1476 105 1  79  561  424 29% 30 467679 2397 39%
c i 35.74 1477 102 1  82  628  472 29% 30 467679 2396 39%
c i 35.96 1477 102 1  83  636  479 29% 31 467679 2395 39%
c i 36.00 1477 102 1  84  638  480 29% 30 467679 2394 39%
c i 36.01 1477 102 1  84  642  480 29% 30 467679 2390 39%
c i 36.49 1477 104 1  88  670  502 28% 31 467679 2389 39%
c i 36.76 1477 100 1  89  704  528 28% 30 467679 2388 39%
c i 36.89 1477 100 1  89  721  543 28% 31 467679 2387 39%
c i 37.14 1477 96 1  89  757  570 28% 30 467679 2386 39%
c i 37.46 1477 93 1  90  842  642 28% 30 467679 2385 39%
c i 37.52 1477 92 1  90  851  650 28% 30 467679 2384 39%
c 
c  seconds    reductions  redundant   irredundant
c          MB     restarts       trail       variables
c            level   conflicts       glue         remaining
c 
c i 37.53 1477 92 1  90  853  651 28% 30 467679 2383 39%
c i 37.56 1477 91 1  90  873  666 28% 30 467679 2382 39%
c i 37.59 1477 91 1  90  881  673 28% 30 467679 2381 39%
c i 37.60 1477 91 1  90  884  675 28% 30 467679 2380 39%
c i 37.61 1477 91 1  90  887  676 28% 30 467679 2378 39%
c i 37.77 1477 91 1  93  907  694 28% 31 467679 2377 39%
c i 37.82 1477 91 1  95  916  699 28% 31 467679 2376 39%
c i 37.90 1477 91 1  97  925  704 28% 31 467679 2361 38%
c i 38.05 1478 92 1  97  940  715 28% 30 467679 2360 38%
c i 38.05 1478 92 1  97  943  717 28% 30 467679 2359 38%
c i 38.14 1478 93 1  98  951  723 28% 31 467679 2358 38%
c i 38.42 1478 92 1 105  984  752 28% 31 467679 2342 38%
c } 38.48 1478 91 1 109 1005  768 28% 31 467679 2342 38%
c [ 38.48 1478  0 1 109 1005  768  0% 0 467679 2342 38%
c O 38.50 1478  1 1 109 1006  769 15% 1 467679 2342 38%
c i 38.51 1478  0 1 109 1007  769 16% 0 467679 2293 37%
c i 38.62 1478 19 1 109 1047  806 31% 16 467679 2292 37%
c i 38.74 1478 20 1 109 1196  902 33% 18 467679 2291 37%
c i 38.77 1478 20 1 109 1219  921 33% 18 467679 2290 37%
c - 39.86 1560 21 2 109 1302  829 33% 18 393814 2290 37%
c 
c  seconds    reductions  redundant   irredundant
c          MB     restarts       trail       variables
c            level   conflicts       glue         remaining
c 
c i 40.28 1560 22 2 109 1594 1014 33% 20 393814 2289 37%
c i 40.42 1560 22 2 109 1865 1138 32% 20 393814 2288 37%
c i 40.56 1560 22 2 110 2138 1286 32% 20 393814 2287 37%
c - 41.25 1559 22 3 110 2737 1166 32% 20 393805 2287 37%
c ] 41.74 1559 23 3 110 3006 1318 52% 20 393805 2287 37%
c { 41.74 1559 91 3 110 3006 1318 76% 31 393805 2287 37%
c F 41.80 1559 91 3 111 3007 1319 76% 31 393805 2287 37%
c i 42.01 1559 88 3 112 3052 1355 75% 30 393805 2286 37%
c i 42.09 1559 84 3 112 3129 1415 73% 29 393805 2285 37%
c i 42.09 1559 83 3 112 3132 1416 73% 29 393805 2284 37%
c i 42.09 1559 83 3 112 3133 1416 73% 29 393805 2283 37%
c i 42.10 1559 83 3 112 3153 1433 72% 29 393805 2282 37%
c i 42.11 1559 82 3 112 3159 1438 72% 29 393805 2281 37%
c i 42.13 1559 79 3 112 3217 1475 71% 28 393805 2280 37%
c i 42.14 1559 77 3 112 3252 1498 71% 28 393805 2279 37%
c i 42.36 1559 63 3 112 3591 1659 66% 24 393805 2278 37%
c i 42.62 1559 44 3 112 4534 2179 61% 19 393805 2277 37%
c - 43.12 1556 44 4 115 4651 1588 60% 19 393775 2277 37%
c p 57.87 1556 42 4 123 5000 6684 59% 19 393749 2181 35%
c d 58.55 1556 42 4 123 5000 6429 59% 19 393491 2175 35%
c 
c  seconds    reductions  redundant   irredundant
c          MB     restarts       trail       variables
c            level   conflicts       glue         remaining
c 
c # 63.06 1556 39 4 205 6008 7126 55% 19 393491 2175 35%
c } 66.75 1556 37 4 294 7007 7867 54% 19 393491 2175 35%
c [ 66.75 1556 23 4 294 7007 7867 52% 20 393491 2175 35%
c - 67.13 1538 23 5 294 7043 2711 52% 20 393491 2175 35%
c - 69.24 1389 22 6 296 9913 3002 52% 19 393491 2175 35%
c I 69.51 1389 21 6 296 10009 3050 52% 19 393491 2175 35%
c - 74.25 1390 25 7 298 13265 3759 50% 21 393491 2175 35%
c 2 76.46 1390 25 7 299 15005 6235 50% 21 393491 2175 35%
c p 80.52 1390 25 7 299 15005 10007 50% 21 393491 2175 35%
c ] 80.76 1390 25 7 299 15007 10009 50% 21 393491 2175 35%
c { 80.76 1390 37 7 299 15007 10009 54% 19 393491 2175 35%
c B 80.87 1390 37 7 299 15014 10014 54% 19 393491 2175 35%
c - 83.35 1391 32 8 316 17093 4637 52% 18 393491 2175 35%
c s 84.72 1391 29 8 325 18667 5328 51% 17 390597 2175 35%
c v 93.50 1391 29 8 325 18667 5328 51% 17 390582 2175 35%
c t 93.65 1391 29 8 325 18667 5315 51% 17 390574 2175 35%
c e 95.12 1393 29 8 325 18667 5057 51% 17 388064 809 13%
c s 95.26 1393 29 8 325 18667 5054 51% 17 386637 809 13%
c W 98.67 1394 25 8 334 21016 6253 72% 16 386637 809 13%
c - 101.19 1394 26 9 394 21399 4537 71% 16 386637 809 13%
c 
c  seconds     reductions    redundant   irredundant
c           MB      restarts        trail       variables
c             level     conflicts       glue        remaining
c 
c - 114.20 1394 26 10 704 26160 5578 72% 16 386637 809 13%
c F 116.51 1394 25 10 715 28024 6551 73% 16 386637 809 13%
c p 126.79 1393 24 10 800 30008 10136 73% 16 386637 808 13%
c } 130.98 1394 24 10 831 31007 10847 73% 16 386637 808 13%
c [ 130.98 1394 25 10 831 31007 10847 142% 21 386637 808 13%
c - 132.24 1394 25 11 831 31398 6282 139% 21 386634 808 13%
c B 142.35 1394 25 11 834 36027 9435 117% 21 386634 808 13%
c - 143.50 1394 27 12 834 37113 7202 113% 22 386634 808 13%
c ] 143.98 1394 28 12 835 37841 7760 111% 23 386634 808 13%
c 1 143.98 1394 28 12 835 37841 7760 111% 23 386634 808 13%
c 
c --- [ writing output ] -----------------------------------------------------
c 
c writing simplified CNF to DIMACS file 'simp/33.cubes5017.adj.simp1'
c * 143.98 1394 28 12 835 37841 7760 111% 23 386634 808 13%
c opening file to write 'simp/33.cubes5017.adj.simp1'
c writing 'p cnf 6160 386634' header
c closing file 'simp/33.cubes5017.adj.simp1'
c after writing 169112155 bytes 161.3 MB
c wrote 386634 clauses in 1.24 seconds process time
c 
c --- [ writing extension ] --------------------------------------------------
c 
c writing extension stack to 'simp/33.cubes5017.adj.ext1'
c opening file to write 'simp/33.cubes5017.adj.ext1'
c closing file 'simp/33.cubes5017.adj.ext1'
c after writing 91676 bytes 0.1 MB
c wrote 4067 witnesses in 0.00 seconds process time
c 
c --- [ result ] -------------------------------------------------------------
c 
s SATISFIABLE
c 
c --- [ run-time profiling ] -------------------------------------------------
c 
c process time taken by individual solving procedures
c (percentage relative to process time for solving)
c 
c        87.98   70.54% search
c        60.28   48.33% unstable
c        36.75   29.46% simplify
c        26.07   20.90% stable
c        23.04   18.47% probe
c        19.25   15.43% parse
c         8.88    7.12% vivify
c         2.84    2.28% elim
c         1.25    1.00% lucky
c         0.38    0.31% walk
c         0.28    0.23% subsume
c         0.17    0.14% ternary
c   =================================
c       124.73   85.89% solve
c 
c last line shows process time for solving
c (percentage relative to total process time)
c 
c --- [ statistics ] ---------------------------------------------------------
c 
c chronological:              7172        18.95 %  of conflicts
c conflicts:                 37841       303.38    per second
c decisions:                 90701       727.18    per second
c eliminated:                 1366        22.18 %  of all variables
c fixed:                       823        13.36 %  of all variables
c learned:                   36950        97.65 %  per conflict
c learned_lits:            6098306       100.00 %  learned literals
c minimized:                     0         0.00 %  learned literals
c shrunken:                4370503        71.67 %  learned literals
c minishrunken:             325429         5.34 %  learned literals
c propagations:            4056731         0.03 M  per second
c reduced:                   16786        44.36 %  per conflict
c rephased:                      8      4730.12    interval
c restarts:                    835        45.32    interval
c stabilizing:                   3        44.49 %  of conflicts
c substituted:                  19         0.31 %  of all variables
c subsumed:                  16528         0.48 %  of all clauses
c strengthened:               5470         0.16 %  of all clauses
c ternary:                    2596         0.63 %  of resolved
c vivified:                     19         0.00 %  of all clauses
c walked:                        1     37841.00    interval
c weakened:                   3244         3.07    average size
c 
c seconds are measured in process time for solving
c 
c --- [ resources ] ----------------------------------------------------------
c 
c total process time since initialization:       145.22    seconds
c total real time since initialization:          145.57    seconds
c maximum resident set size of process:         1729.85    MB
c 
c --- [ shutting down ] ------------------------------------------------------
c 
c exit 10
WARNING! DIMACS header mismatch: wrong number of variables.
============================[ Problem Statistics ]=============================
|                                                                             |
|  Number of variables:          6111                                         |
|  Number of clauses:          386636                                         |
|  Parse time:                   2.25 s                                       |
|  Simplification time:          0.06 s                                       |
|                                                                             |
============================[ Search Statistics ]====================================================
| Conflicts |          ORIGINAL         |          LEARNT          | Num Sols |      SUBGRAPHS      |
|           |    Vars  Clauses Literals |    Limit  Clauses Lit/Cl |          | Canonical Noncanon. |
=====================================================================================================
|       132 |    6020   386668 36923441 |     2000      132     64 |        0 |        31        32 |
|       283 |    6020   386669 36923451 |     2000      283     88 |        0 |        31        33 |
|       514 |    6020   386675 36923648 |     2000      514     87 |        0 |        46        39 |
|       854 |    6020   386678 36923687 |     2000      854     91 |        0 |        51        42 |
|      1663 |    6020   386981 36927865 |     2000     1663     75 |        0 |        95       345 |
|      2424 |    6020   386983 36927882 |     3605     1429     62 |        0 |        97       347 |
|      3574 |    6020   386994 36928201 |     3605     2579     74 |        0 |       104       358 |
|      5286 |    6020   386998 36928345 |     5005     2491     64 |        0 |       106       362 |
|      7872 |    6020   387022 36928900 |     6310     2582     50 |        0 |       109       386 |
|     11899 |    6020   387205 36931592 |     7559     3458     43 |        0 |       260       569 |
|     19832 |    6020   389372 36965562 |     8793     7625     52 |        0 |       775      2736 |
|     29397 |    6020   390288 36982573 |    11204     7801     43 |        0 |       891      3652 |
|     48303 |    6020   396220 37063668 |    14811     8114     28 |        0 |      1399      9584 |
|     70389 |    6020   398845 37105114 |    17217    14806     52 |        0 |      1995     12209 |
|    105682 |    6020   404946 37186417 |    22003    12085     25 |        0 |      2963     18310 |
|    152832 |    6020   408307 37234297 |    25609    24441     54 |        0 |      3607     21671 |
|    228887 |    6020   418678 37367067 |    31607    30494     57 |        0 |      6181     32042 |
=====================================================================================================
Number of solutions   : 1
Canonical subgraphs   : 9034           (10 /sec)
          order  3    : 1              (166667 /sec)
          order  4    : 1              (500000 /sec)
          order  5    : 1              (250000 /sec)
          order  6    : 1              (55556 /sec)
          order  7    : 1              (8929 /sec)
          order  8    : 2              (1361 /sec)
          order  9    : 6              (315 /sec)
          order 10    : 21             (84 /sec)
          order 11    : 84             (26 /sec)
          order 12    : 280            (8 /sec)
          order 13    : 179            (3 /sec)
          order 14    : 1508           (8 /sec)
          order 15    : 1954           (15 /sec)
          order 16    : 2354           (12 /sec)
          order 17    : 1618           (10 /sec)
          order 18    : 848            (6 /sec)
          order 19    : 161            (9 /sec)
          order 20    : 10             (10 /sec)
          order 21    : 3              (8 /sec)
          order 22    : 1              (1 /sec)
Noncanonical subgraphs: 41406          (86 /sec)
          order  3    : 0              (-nan /sec)
          order  4    : 0              (-nan /sec)
          order  5    : 0              (-nan /sec)
          order  6    : 0              (-nan /sec)
          order  7    : 0              (-nan /sec)
          order  8    : 0              (-nan /sec)
          order  9    : 0              (-nan /sec)
          order 10    : 0              (-nan /sec)
          order 11    : 0              (-nan /sec)
          order 12    : 0              (-nan /sec)
          order 13    : 1195           (2071 /sec)
          order 14    : 3978           (526 /sec)
          order 15    : 25106          (68 /sec)
          order 16    : 8002           (145 /sec)
          order 17    : 948            (85 /sec)
          order 18    : 2174           (54 /sec)
          order 19    : 1              (330 /sec)
          order 20    : 0              (-nan /sec)
          order 21    : 0              (-nan /sec)
Canonicity checking   : 924.258 s
Noncanonicity checking: 482.814 s
Total canonicity time : 1407.07 s
database reductions   : 30
restarts              : 766
conflicts             : 330797         (207 /sec)
decisions             : 472664         (0.00 % random) (296 /sec)
propagations          : 14731542       (9236 /sec)
conflict literals     : 29068022       (55.69 % deleted)
actual reward         : 0.277755
Memory used           : 464.00 MB
CPU time              : 1595.02 s

UNSATISFIABLE
